(set-logic QF_AUFBV)
(declare-fun bvlambda_1_ () (_ BitVec 1))
(declare-fun bvlambda_2_ () (_ BitVec 7))
(declare-fun bvlambda_3_ () (_ BitVec 1))
(declare-fun a19 () (Array (_ BitVec 1) (_ BitVec 1)))
(assert
(let (($e1 (_ bv0 1)))
(let (($e2 (_ bv29050 15)))
(let (($e3 (_ bv168 8)))
(let (($e4 (_ bv0 6)))
(let (($e5 (_ bv32766 15)))
(let (($e6 (_ bv3718 15)))
(let (($e7 (_ bv0 8)))
(let (($e8 (_ bv510 9)))
(let (($e9 (_ bv0 5)))
(let (($e10 (_ bv0 9)))
(let (($e11 (_ bv65448 16)))
(let (($e12 (_ bv0 14)))
(let (($e13 (_ bv12666 14)))
(let (($e14 (_ bv0 13)))
(let (($e15 (_ bv0 7)))
(let (($e20 (concat $e4 bvlambda_1_)))
(let (($e21 (concat $e20 bvlambda_2_)))
(let (($e22 (concat $e21 bvlambda_3_)))
(let (($e23 (concat (bvnot $e4) bvlambda_1_)))
(let (($e24 (concat $e23 bvlambda_2_)))
(let (($e25 (concat $e24 bvlambda_3_)))
(let (($e26 (ite (= #b1 bvlambda_1_) $e25 $e22)))
(let (($e27 (bvadd (bvnot $e5) (bvnot $e26))))
(let (($e28 ((_ extract 14 14) $e26)))
(let (($e29 (ite (= #b1 $e28) $e27 $e26)))
(let (($e30 (bvudiv $e29 $e6)))
(let (($e31 (bvadd (bvnot $e5) (bvnot $e30))))
(let (($e32 (ite (= #b1 $e28) $e30 $e31)))
(let (($e33 ((_ extract 4 4) $e32)))
(let (($e34 (store a19 (bvnot $e1) $e33)))
(let (($e35 (select $e34 bvlambda_3_)))
(let (($e36 (select a19 $e1)))
(let (($e37 (ite (= $e36 $e35) #b1 #b0)))
(let (($e38 (bvand $e36 (bvnot $e35))))
(let (($e39 (bvand $e38 $e37)))
(let (($e40 (concat bvlambda_1_ bvlambda_2_)))
(let (($e41 (concat $e40 bvlambda_3_)))
(let (($e42 (concat $e7 $e36)))
(let (($e43 (bvand $e42 $e41)))
(let (($e44 (bvand (bvnot $e42) (bvnot $e41))))
(let (($e45 (bvand (bvnot $e44) (bvnot $e43))))
(let (($e46 (concat (bvnot $e7) $e36)))
(let (($e47 (ite (= #b1 $e36) $e46 $e42)))
(let (($e48 (bvadd $e47 (bvnot $e45))))
(let (($e49 (ite (bvult $e41 $e48) #b1 #b0)))
(let (($e50 (bvand (bvnot $e36) $e35)))
(let (($e51 (bvand $e50 $e49)))
(let (($e52 ((_ extract 8 8) $e45)))
(let (($e53 (bvand (bvnot $e50) $e52)))
(let (($e54 (bvand (bvnot $e53) (bvnot $e51))))
(let (($e55 (concat $e9 bvlambda_1_)))
(let (($e56 (concat $e55 bvlambda_2_)))
(let (($e57 (concat $e56 bvlambda_3_)))
(let (($e58 ((_ extract 13 0) $e32)))
(let (($e59 (ite (bvult $e58 $e57) #b1 #b0)))
(let (($e60 ((_ extract 14 14) $e32)))
(let (($e61 (bvand (bvnot $e60) (bvnot $e59))))
(let (($e62 (bvand $e61 $e54)))
(let (($e63 (concat $e14 $e36)))
(let (($e64 (ite (bvult $e58 $e63) #b1 #b0)))
(let (($e65 (bvand (bvnot $e60) (bvnot $e64))))
(let (($e66 (ite (= $e65 $e62) #b1 #b0)))
(let (($e67 (bvadd (bvnot $e8) (bvnot $e41))))
(let (($e68 (ite (= #b1 bvlambda_1_) $e67 $e41)))
(let (($e69 (select a19 $e36)))
(let (($e70 (concat $e7 $e69)))
(let (($e71 (bvudiv $e70 $e68)))
(let (($e72 (bvadd (bvnot $e8) (bvnot $e71))))
(let (($e73 (ite (= #b1 bvlambda_1_) $e72 $e71)))
(let (($e74 ((_ extract 3 0) $e73)))
(let (($e75 (bvlshr (bvnot $e11)  ((_ zero_extend 12) $e74))))
(let (($e76 ((_ extract 8 0) $e75)))
(let (($e77 ((_ extract 8 4) $e73)))
(let (($e78 (ite (= $e9 $e77) #b1 #b0)))
(let (($e79 (ite (= #b1 $e78) $e76 $e10)))
(let (($e80 (concat $e7 $e35)))
(let (($e81 (concat (bvnot $e7) $e35)))
(let (($e82 (ite (= #b1 $e35) $e81 $e80)))
(let (($e83 (ite (bvult $e82 $e79) #b1 #b0)))
(let (($e84 ((_ extract 7 0) $e45)))
(let (($e85 (ite (bvult $e84 $e3) #b1 #b0)))
(let (($e86 (bvand $e52 $e85)))
(let (($e87 (bvand (bvnot $e86) $e83)))
(let (($e88 (ite (bvult $e47 $e79) #b1 #b0)))
(let (($e89 (bvand $e86 $e88)))
(let (($e90 (bvand (bvnot $e89) (bvnot $e87))))
(let (($e91 ((_ extract 0 0) $e32)))
(let (($e92 (store a19 (bvnot $e1) $e35)))
(let (($e93 (select $e92 $e91)))
(let (($e94 (ite (= $e35 $e93) #b1 #b0)))
(let (($e95 (bvand (bvnot $e35) $e94)))
(let (($e96 (bvand $e95 (bvnot $e90))))
(let (($e97 (bvand $e96 $e66)))
(let (($e98 (bvand (bvnot $e96) (bvnot $e66))))
(let (($e99 (bvand (bvnot $e98) (bvnot $e97))))
(let (($e100 (ite (= $e10 $e73) #b1 #b0)))
(let (($e101 (ite (= $e10 $e76) #b1 #b0)))
(let (($e102 (bvand $e78 (bvnot $e101))))
(let (($e103 (bvand (bvnot $e102) (bvnot $e100))))
(let (($e104 ((_ extract 8 8) $e48)))
(let (($e105 (concat (bvnot $e7) $e69)))
(let (($e106 (ite (= #b1 $e69) $e105 $e70)))
(let (($e107 ((_ extract 8 8) $e106)))
(let (($e108 (ite (= $e107 $e104) #b1 #b0)))
(let (($e109 ((_ extract 7 0) $e48)))
(let (($e110 ((_ extract 7 0) $e106)))
(let (($e111 (ite (bvult $e110 $e109) #b1 #b0)))
(let (($e112 (bvand $e111 $e108)))
(let (($e113 (bvand $e107 (bvnot $e104))))
(let (($e114 (bvand (bvnot $e113) (bvnot $e112))))
(let (($e115 (bvand $e114 $e102)))
(let (($e116 (bvand (bvnot $e115) (bvnot $e103))))
(let (($e117 (concat $e4 $e73)))
(let (($e118 (concat (bvnot $e4) $e73)))
(let (($e119 ((_ extract 8 8) $e73)))
(let (($e120 (ite (= #b1 $e119) $e118 $e117)))
(let (($e121 (ite (bvult $e120 $e2) #b1 #b0)))
(let (($e122 (ite (= $e121 $e116) #b1 #b0)))
(let (($e123 ((_ extract 8 8) $e75)))
(let (($e124 (bvand $e78 $e123)))
(let (($e125 (concat $e12 $e36)))
(let (($e126 (concat (bvnot $e12) $e36)))
(let (($e127 (ite (= #b1 $e36) $e126 $e125)))
(let (($e128 ((_ extract 13 0) $e127)))
(let (($e129 (ite (bvult $e128 $e13) #b1 #b0)))
(let (($e130 ((_ extract 14 14) $e127)))
(let (($e131 (bvand $e130 $e129)))
(let (($e132 (concat (bvnot $e7) (bvnot $e131))))
(let (($e133 (concat $e7 (bvnot $e131))))
(let (($e134 (ite (= #b1 $e131) $e133 $e132)))
(let (($e135 ((_ extract 8 8) $e134)))
(let (($e136 (ite (= $e135 $e124) #b1 #b0)))
(let (($e137 ((_ extract 7 0) $e134)))
(let (($e138 ((_ extract 7 0) $e75)))
(let (($e139 (ite (= #b1 $e78) $e138 $e7)))
(let (($e140 (ite (bvult $e139 $e137) #b1 #b0)))
(let (($e141 (bvand $e140 $e136)))
(let (($e142 (bvand (bvnot $e135) $e124)))
(let (($e143 (bvand (bvnot $e142) (bvnot $e141))))
(let (($e144 (ite (= $e143 $e122) #b1 #b0)))
(let (($e145 (bvand (bvnot $e144) (bvnot $e99))))
(let (($e146 (ite (bvult $e41 $e134) #b1 #b0)))
(let (($e147 (bvand $e36 (bvnot $e69))))
(let (($e148 (ite (= (bvnot $e147) $e146) #b1 #b0)))
(let (($e149 (ite (bvult $e45 $e8) #b1 #b0)))
(let (($e150 (ite (= $e149 $e148) #b1 #b0)))
(let (($e151 (ite (bvult $e134 $e79) #b1 #b0)))
(let (($e152 (bvand $e35 (bvnot $e151))))
(let (($e153 (bvand (bvnot $e36) $e93)))
(let (($e154 (bvand (bvnot $e69) $e153)))
(let (($e155 (ite (= $e154 $e152) #b1 #b0)))
(let (($e156 (bvand (bvnot $e131) $e155)))
(let (($e157 (bvand (bvnot $e156) (bvnot $e150))))
(let (($e158 (bvand $e156 $e150)))
(let (($e159 (bvand (bvnot $e158) (bvnot $e157))))
(let (($e160 (concat $e35 $e35)))
(let (($e161 (concat $e12 $e69)))
(let (($e162 (concat (bvnot $e12) $e69)))
(let (($e163 (ite (= #b1 $e69) $e162 $e161)))
(let (($e164 ((_ extract 14 14) $e163)))
(let (($e165 (ite (= $e164 $e60) #b1 #b0)))
(let (($e166 ((_ extract 13 0) $e163)))
(let (($e167 (ite (bvult $e58 $e166) #b1 #b0)))
(let (($e168 (bvand $e167 $e165)))
(let (($e169 (bvand (bvnot $e164) $e60)))
(let (($e170 (bvand (bvnot $e169) (bvnot $e168))))
(let (($e171 (concat (bvnot $e170) (bvnot $e170))))
(let (($e172 (ite (bvult $e171 $e160) #b1 #b0)))
(let (($e173 (bvand $e131 $e35)))
(let (($e174 (ite (= $e173 $e172) #b1 #b0)))
(let (($e175 (ite (bvult $e47 $e41) #b1 #b0)))
(let (($e176 ((_ extract 8 8) $e82)))
(let (($e177 (ite (= $e176 $e119) #b1 #b0)))
(let (($e178 ((_ extract 7 0) $e73)))
(let (($e179 ((_ extract 7 0) $e82)))
(let (($e180 (ite (bvult $e179 $e178) #b1 #b0)))
(let (($e181 (bvand $e180 $e177)))
(let (($e182 (bvand $e176 (bvnot $e119))))
(let (($e183 (bvand (bvnot $e182) (bvnot $e181))))
(let (($e184 (bvand (bvnot $e183) (bvnot $e175))))
(let (($e185 (bvand (bvnot $e184) $e174)))
(let (($e186 (concat (bvnot $e12) (bvnot $e131))))
(let (($e187 (concat $e12 (bvnot $e131))))
(let (($e188 (ite (= #b1 $e131) $e187 $e186)))
(let (($e189 (ite (= $e2 $e188) #b1 #b0)))
(let (($e190 (bvand $e189 (bvnot $e185))))
(let (($e191 (bvand (bvnot $e131) (bvnot $e35))))
(let (($e192 (ite (= $e191 $e190) #b1 #b0)))
(let (($e193 (ite (bvult (bvnot $e45) $e42) #b1 #b0)))
(let (($e194 (ite (= $e173 (bvnot $e193)) #b1 #b0)))
(let (($e195 (bvand (bvnot $e69) $e35)))
(let (($e196 ((_ extract 0 0) $e134)))
(let (($e197 (ite (= bvlambda_3_ $e196) #b1 #b0)))
(let (($e198 ((_ extract 7 1) $e134)))
(let (($e199 (ite (= bvlambda_2_ $e198) #b1 #b0)))
(let (($e200 (ite (= $e135 bvlambda_1_) #b1 #b0)))
(let (($e201 (bvand $e200 $e199)))
(let (($e202 (bvand $e201 $e197)))
(let (($e203 (bvand (bvnot $e202) $e195)))
(let (($e204 ((_ extract 13 0) $e188)))
(let (($e205 (ite (bvult $e204 $e13) #b1 #b0)))
(let (($e206 ((_ extract 14 14) $e188)))
(let (($e207 (bvand $e206 $e205)))
(let (($e208 (bvand (bvnot $e207) (bvnot $e203))))
(let (($e209 (ite (= $e208 $e194) #b1 #b0)))
(let (($e210 (bvand (bvnot $e209) $e192)))
(let (($e211 (bvand $e210 (bvnot $e159))))
(let (($e212 (bvand $e211 $e145)))
(let (($e213 (bvand (bvnot $e211) (bvnot $e145))))
(let (($e214 (ite (= bvlambda_2_ (bvnot $e15)) #b1 #b0)))
(let (($e215 (bvand bvlambda_1_ $e214)))
(let (($e216 (bvand bvlambda_3_ $e215)))
(let (($e217 (ite (= bvlambda_2_ $e15) #b1 #b0)))
(let (($e218 (bvand (bvnot bvlambda_1_) $e217)))
(let (($e219 (bvand (bvnot bvlambda_3_) $e218)))
(let (($e220 (bvand (bvnot $e219) (bvnot $e216))))
(let (($e221 (bvand $e220 (bvnot $e213))))
(let (($e222 (bvand $e221 (bvnot $e212))))
(let (($e223 (bvand $e222 (bvnot $e39))))
 (not (= $e223 #b0))))))))))))))))))))))))))))))))))))))))))))))))))))))))))))))))))))))))))))))))))))))))))))))))))))))))))))))))))))))))))))))))))))))))))))))))))))))))))))))))))))))))))))))))))))))))))))))))))))))))))))))))))))))))))))))
(check-sat)
(exit)
